c description: Random 3-CNF over 19 variables and 81 clauses
c generator: CNFgen (0.9.2)
c copyright: (C) 2012-2022 Massimo Lauria <massimo.lauria@uniroma1.it>
c url: https://massimolauria.net/cnfgen
c command line: cnfgen --output CNF_4.28/19_bit_81_480.cnf randkcnf 3 19 81
c
p cnf 19 81
11 -13 17 0
-10 -18 19 0
-5 8 -11 0
8 -11 -19 0
-2 -12 -15 0
-2 9 15 0
2 8 13 0
4 11 -17 0
5 7 -15 0
2 -3 -6 0
2 -12 18 0
-3 -9 14 0
-4 -5 -18 0
-4 -8 16 0
4 -5 -18 0
9 10 13 0
3 4 -14 0
6 7 15 0
-1 11 -17 0
4 12 13 0
-10 12 -14 0
3 12 -14 0
14 16 17 0
8 -11 19 0
-1 10 19 0
1 -9 -10 0
3 4 19 0
7 8 10 0
4 9 -16 0
-11 -15 16 0
4 -10 16 0
-1 -12 -14 0
-6 8 18 0
-4 -11 -12 0
-7 8 -13 0
-7 -9 16 0
-2 -10 15 0
-6 -9 16 0
4 -9 -12 0
-2 -4 -14 0
-4 -10 18 0
-11 13 17 0
1 8 -9 0
-4 -9 19 0
1 -12 -19 0
-1 5 -11 0
-1 3 18 0
7 11 19 0
-3 -9 13 0
-3 6 -7 0
6 13 17 0
11 16 19 0
12 -15 18 0
-9 -12 -15 0
1 12 -13 0
-6 -9 19 0
-2 -4 -15 0
-4 16 -18 0
1 -5 -15 0
-5 9 -16 0
12 13 16 0
5 -8 19 0
2 -9 -16 0
9 11 15 0
1 -5 -13 0
-6 -13 -15 0
-9 10 15 0
-5 11 17 0
-15 -17 18 0
-7 13 14 0
-3 9 -10 0
8 11 15 0
2 -15 -17 0
9 13 -14 0
-3 -14 -15 0
-5 -12 -15 0
4 -14 18 0
-6 -7 12 0
6 10 15 0
-1 12 14 0
2 3 10 0
